p wcnf 5 14 15
c ===== Hard Clauses =====
c ===== Soft Clauses (Sum weights: 14) =====
1 3 4 0
1 -3 -4 0
1 1 4 0
1 -1 -4 0
1 2 3 0
1 -2 -3 0
1 1 2 0
1 -1 -2 0
1 4 5 0
1 -4 -5 0
1 1 5 0
1 -1 -5 0
1 1 3 0
1 -1 -3 0
